\ENCODING=ISO-8859-1
\Problem name: IloCplex

Minimize
 obj: - x1 - x2 - x3 - x4 - x5 - x6 - x7 - x8 - x9 - x10 - x11 - x12 - x13
      - x14 - x15 - x16 - 0.584158415841584 x17 - x18 - x19 - x20
      - 0.623762376237624 x21 - 0.376237623762376 x22 - 0.623762376237624 x23
      - 0.376237623762376 x24 - x25 - 0.592079207920792 x27
      - 0.449504950495049 x28 - 0.415841584158416 x29 - 0.415841584158416 x30
      - 0.461386138613861 x31 - 0.0891089108910894 x32 - 0.776237623762376 x33
      - 0.435643564356436 x34 - 0.548514851485149 x35 - 0.148514851485148 x37
      - 0.134653465346535 x38 - 0.241584158415842 x39 + 0.174257425742574 x40
      - 0.516831683168317 x41 + 0.0415841584158416 x42 + 0.0851485148514853 x43
      + 0.0633663366336631 x45 - 0.0316831683168314 x46 - 0.174257425742574 x47
      + 0.413861386138614 x48 - 0.413861386138614 x49 + 0.415841584158416 x50
      + 1
Subject To
 c1:  99 x1 + 99 x2 + 96 x3 + 96 x4 + 92 x5 + 92 x6 + 91 x7 + 88 x8 + 87 x9
      + 86 x10 + 85 x11 + 76 x12 + 74 x13 + 72 x14 + 69 x15 + 67 x16 + 67 x17
      + 62 x18 + 61 x19 + 56 x20 + 52 x21 + 51 x22 + 49 x23 + 46 x24 + 44 x25
      + 42 x26 + 40 x27 + 40 x28 + 33 x29 + 33 x30 + 30 x31 + 30 x32 + 29 x33
      + 28 x34 + 28 x35 + 27 x36 + 25 x37 + 24 x38 + 23 x39 + 22 x40 + 21 x41
      + 20 x42 + 17 x43 + 14 x44 + 13 x45 + 11 x46 + 10 x47 + 7 x48 + 7 x49
      + 3 x50 <= 100
 c2:  x14 + x34 <= 1
 c3:  x12 + x38 <= 1
 c4:  x15 + x33 <= 1
 c5:  x15 + x31 <= 1
 c6:  x9 + x45 <= 1
 c7:  x19 + x38 <= 1
 c8:  x7 + x49 <= 1
 c9:  x9 + x47 <= 1
 c10: x8 + x47 <= 1
 c11: x16 + x31 <= 1
 c12: x19 + x34 <= 1
 c13: x10 + x44 <= 1
 c14: x10 + x46 <= 1
 c15: x33 + x34 <= 1
 c16: x14 + x35 <= 1
 c17: x32 + x34 <= 1
 c18: x11 + x44 <= 1
 c19: x18 + x41 <= 1
 c20: x19 + x35 <= 1
 c21: x20 + x25 <= 1
 c22: x47 + x49 <= 1
 c23: x13 + x37 <= 1
 c24: x18 + x39 <= 1
 c25: x18 + x38 <= 1
 c26: x18 + x33 <= 1
 c27: x12 + x39 <= 1
 c28: x32 + x38 <= 1
 c29: x25 + x31 <= 1
 c30: x16 + x29 <= 1
 c31: x38 + x47 <= 1
 c32: x18 + x38 <= 1
 c33: x26 + x32 <= 1
 c34: x46 + x47 <= 1
 c35: x32 + x48 <= 1
 c36: x19 + x40 <= 1
 c37: x25 + x33 <= 1
 c38: x19 + x32 <= 1
Bounds
 0 <= x1 <= 1
 0 <= x2 <= 1
 0 <= x3 <= 1
 0 <= x4 <= 1
 0 <= x5 <= 1
 0 <= x6 <= 1
 0 <= x7 <= 1
 0 <= x8 <= 1
 0 <= x9 <= 1
 0 <= x10 <= 1
 0 <= x11 <= 1
 0 <= x12 <= 1
 0 <= x13 <= 1
 0 <= x14 <= 1
 0 <= x15 <= 1
 0 <= x16 <= 1
 0 <= x17 <= 1
 0 <= x18 <= 1
 0 <= x19 <= 1
 0 <= x20 <= 1
 0 <= x21 <= 1
 0 <= x22 <= 1
 0 <= x23 <= 1
 0 <= x24 <= 1
 0 <= x25 <= 1
      x26 = 1
 0 <= x27 <= 1
 0 <= x28 <= 1
 0 <= x29 <= 1
 0 <= x30 <= 1
 0 <= x31 <= 1
 0 <= x32 <= 1
 0 <= x33 <= 1
 0 <= x34 <= 1
 0 <= x35 <= 1
 0 <= x36 <= 1
 0 <= x37 <= 1
 0 <= x38 <= 1
 0 <= x39 <= 1
 0 <= x40 <= 1
 0 <= x41 <= 1
 0 <= x42 <= 1
 0 <= x43 <= 1
 0 <= x44 <= 1
 0 <= x45 <= 1
      x46 = 1
 0 <= x47 <= 1
      x48 = 1
      x49 = 1
      x50 = 1
Binaries
 x1  x2  x3  x4  x5  x6  x7  x8  x9  x10  x11  x12  x13  x14  x15  x16  x17 
 x18  x19  x20  x21  x22  x23  x24  x25  x26  x27  x28  x29  x30  x31  x32 
 x33  x34  x35  x36  x37  x38  x39  x40  x41  x42  x43  x44  x45  x46  x47 
 x48  x49  x50 
End
